n_days = 42;
n_roads = 5;
n_centers = 1;    %Number Workcenters
n_worksheets = 3; %Number of Worksheets
n_activitys = 8;  %Number activities
n_road_sets = 2;  %Number of different sets with road constraints
n_precede = 1;

PERTUBATION = 
[|34, 34, 34, 34, 34, 34, 34, 34, 34, 34, 34, 34, 34, 34, 34, 34, 34, 34, 34, 34, 34, 34, 34, 34, 34, 34, 34, 34, 34, 34, 34, 34, 34, 34, 34, 34, 34, 34, 34, 34, 34, 34
|18, 18, 39, 39, 39, 39, 39, 39, 39, 39, 39, 39, 39, 39, 11, 11, 11, 11, 11, 23, 23, 23, 23, 23, 23, 23, 23, 23, 23, 23, 23, 23, 23, 23, 23, 23, 23, 23, 23, 23, 23, 23
|41, 41, 41, 42, 42, 23, 23, 50, 50, 50, 50, 50, 50, 50, 50, 14, 14, 14, 14, 14, 14, 14, 14, 14, 14, 14, 14, 14, 14, 14, 14, 14, 14, 14, 14, 14, 14, 14, 14, 14, 14, 14
|40, 40, 40, 40, 40, 40, 40, 40, 40, 40, 46, 46, 46, 46, 46, 46, 46, 46, 46, 46, 46, 46, 46, 46, 46, 46, 46, 17, 17, 17, 17, 17, 17, 42, 42, 42, 42, 42, 42, 42, 42, 42
|48, 48, 48, 48, 48, 48, 48, 48, 48, 48, 48, 48, 48, 48, 48, 48, 48, 48, 48, 48, 48, 48, 48, 48, 48, 48, 48, 48, 48, 48, 48, 48, 48, 48, 48, 48, 48, 48, 48, 48, 48, 48|];    %Pertubation costs per road and day, n_roads must be all 0
USED_CENTER = [0, 0, 0];    %The used center for each worksheet ID
MANDATORY = [0, 0, 0];     %True if Worksheet is mandatory
IMPORTANCE = [61, 29, 65];     %Importance of the worksheet, higher-> more important
EST = [0, 0, 0];            %Earliest starting time of the Worksheet
LST = [39, 38, 41];            %Latest starting time of the Worksheet
DURATION = [3, 4, 1];       %Duration of the worksheet == number of succesiv tasks
USED_ROADS = 
[|0, 3, 4
|0, 3, 1, 3
|3|]; %Road_ID that is closed of each day in DURATION, the remaining are filled with the DUmmy Road n_roads --> we have to find something better
WORKERS_NEEDED = 
[|19, 6, 16
|11, 15, 8, 8
|3|]; %Number of workers that are needed of each day in DURATION, the remaining day are filled with 0 --> we have to find something better
MAX_CLOSED = [2, 2];      %Maximal number of roads in each set that can be closed simultaneously
ROAD_CLOSE = [{0, 1, 2, 3, 4}, {2, 3, 4}];      %Set of roads which refer to MAX_CLOSED
PRECEDE = [|2, 0|];  %The first Workbook_ID has to be finished before the second 
MAX_CAPACITY = [232];
